p cnf 82 257
a 20 69 0
e 1 2 3 4 5 6 7 8 9 10 11 12 13 14 15 16 17 18 19 21 22 23 24 25 26 27 28 29 30 31 32 33 34 35 36 37 38 39 40 41 42 43 44 45 46 47 48 49 50 51 52 53 54 55 56 57 58 59 60 61 62 63 64 65 66 67 68 70 71 72 73 74 75 76 77 78 79 80 81 82 0
1 -2 -3 0
-1 2 -3 0
1 2 3 0
-1 -2 3 0
4 5 -6 0
-4 -5 -6 0
4 -5 6 0
-4 5 6 0
7 -4 0
7 -6 0
4 6 -7 0
-8 -6 -9 0
8 6 -9 0
-8 6 9 0
8 -6 9 0
-12 -10 0
-12 11 0
10 -11 12 0
-13 9 0
-13 -12 0
-9 12 13 0
16 -14 0
16 -15 0
14 15 -16 0
17 5 0
17 16 0
-5 -16 -17 0
-18 -13 0
-18 -17 0
13 17 18 0
19 7 0
19 -18 0
-7 18 -19 0
-15 16 -20 0
15 -16 -20 0
-15 -16 20 0
15 16 20 0
-19 20 -21 0
19 -20 -21 0
-19 -20 21 0
19 20 21 0
22 -3 0
22 -21 0
3 21 -22 0
23 6 0
23 11 0
-6 -11 -23 0
-24 7 0
-24 -7 0
-25 -24 0
-25 -7 0
24 7 25 0
-26 23 0
-26 25 0
-23 -25 26 0
27 22 0
27 26 0
-22 -26 -27 0
-14 -2 -28 0
14 2 -28 0
-14 2 28 0
14 -2 28 0
-29 12 0
-29 28 0
-12 -28 29 0
-30 -9 0
-30 29 0
9 -29 30 0
31 -30 0
31 24 0
30 -24 -31 0
33 11 0
33 -32 0
-11 32 -33 0
34 33 0
34 32 0
-33 -32 -34 0
-34 -2 -35 0
34 2 -35 0
-34 2 35 0
34 -2 35 0
-11 -5 -36 0
11 5 -36 0
-11 5 36 0
11 -5 36 0
35 36 -37 0
-35 -36 -37 0
35 -36 37 0
-35 36 37 0
38 37 0
38 35 0
-37 -35 -38 0
-4 -39 0
4 -39 0
39 10 -40 0
-39 -10 -40 0
39 -10 40 0
-39 10 40 0
41 -38 0
41 40 0
38 -40 -41 0
-42 -15 0
-42 -35 0
15 35 42 0
-2 16 -43 0
2 -16 -43 0
-2 -16 43 0
2 16 43 0
44 34 0
44 43 0
-34 -43 -44 0
-45 -39 0
-45 44 0
39 -44 45 0
45 -10 -46 0
-45 10 -46 0
45 10 46 0
-45 -10 46 0
-47 -42 0
-47 46 0
42 -46 47 0
-48 -2 0
-48 -45 0
2 45 48 0
-49 -12 0
-49 -4 0
12 4 49 0
50 48 0
50 -49 0
-48 49 -50 0
-51 -29 0
-51 -2 0
29 2 51 0
51 12 -52 0
-51 -12 -52 0
51 -12 52 0
-51 12 52 0
-53 -28 0
-53 43 0
28 -43 53 0
54 -53 0
54 36 0
53 -36 -54 0
-55 4 0
-55 -9 0
-4 9 55 0
-56 -54 0
-56 55 0
54 -55 56 0
-57 -52 0
-57 -56 0
52 56 57 0
50 -57 -58 0
-50 57 -58 0
50 57 58 0
-50 -57 58 0
-47 58 -59 0
47 -58 -59 0
-47 -58 59 0
47 58 59 0
-41 -59 -60 0
41 59 -60 0
-41 59 60 0
41 -59 60 0
61 -31 0
61 60 0
31 -60 -61 0
62 12 0
62 33 0
-12 -33 -62 0
63 -61 0
63 62 0
61 -62 -63 0
-64 -4 0
-64 32 0
4 -32 64 0
-65 -7 0
-65 24 0
7 -24 65 0
66 65 0
66 -8 0
-65 8 -66 0
67 -44 0
67 16 0
44 -16 -67 0
-66 -67 -68 0
66 67 -68 0
-66 67 68 0
66 -67 68 0
-69 64 0
-69 -68 0
-64 68 69 0
-70 -63 0
-70 -69 0
63 69 70 0
-71 53 0
-71 -17 0
-53 17 71 0
-72 6 0
-72 -44 0
-6 44 72 0
-73 -29 0
-73 -72 0
29 72 73 0
74 71 0
74 -73 0
-71 73 -74 0
75 -65 0
75 29 0
65 -29 -75 0
-76 75 0
-76 43 0
-75 -43 76 0
44 -76 -77 0
-44 76 -77 0
44 76 77 0
-44 -76 77 0
74 -77 -78 0
-74 77 -78 0
74 77 78 0
-74 -77 78 0
79 -11 0
79 72 0
11 -72 -79 0
80 78 0
80 79 0
-78 -79 -80 0
81 -70 0
81 80 0
70 -80 -81 0
-82 27 0
-82 81 0
-27 -81 82 0
-5 -57 82 0
-67 51 1 0
-19 -38 -32 -53 -48 -52 0
62 16 22 -71 60 68 19 76 0
-67 80 -61 19 -17 -60 0
41 74 -35 70 0
18 -63 40 42 -72 -31 64 52 0
65 -13 12 -26 76 60 0
77 -67 -42 -62 24 51 0
45 -73 -82 19 -37 -80 -4 0
16 70 -1 0
-46 -61 -68 0
-29 36 16 0
-17 -15 -59 0
81 -64 -20 -72 -48 0
-37 51 60 46 40 0
13 -25 40 -2 0
-4 50 55 0
-11 -72 -70 -81 -32 43 0
14 31 79 0
-15 76 -11 38 -48 58 70 53 0
12 25 -75 0
-78 71 60 -27 -44 -82 0
82 0
